
Gurobi 9.1.2 (win64) logging started Mon Dec  6 13:33:36 2021

Gurobi Optimizer version 9.1.2 build v9.1.2rc0 (win64)
Thread count: 8 physical cores, 8 logical processors, using up to 8 threads
Optimize a model with 1 rows, 14 columns and 13 nonzeros
Model fingerprint: 0x785aa4a7
Variable types: 1 continuous, 13 integer (13 binary)
Coefficient statistics:
  Matrix range     [1e+00, 9e+00]
  Objective range  [1e+00, 1e+00]
  Bounds range     [1e+00, 1e+00]
  RHS range        [1e+01, 1e+01]
Presolve time: 0.00s
Presolved: 1 rows, 14 columns, 13 nonzeros
Variable types: 1 continuous, 13 integer (13 binary)

Root simplex log...

Iteration    Objective       Primal Inf.    Dual Inf.      Time
       0   -1.2936041e+00   5.248223e-02   0.000000e+00     14s
       2   -1.2936041e+00   0.000000e+00   0.000000e+00     14s

Root relaxation: objective -1.293604e+00, 2 iterations, 0.00 seconds

    Nodes    |    Current Node    |     Objective Bounds      |     Work
 Expl Unexpl |  Obj  Depth IntInf | Incumbent    BestBd   Gap | It/Node Time

*    0     0               0      -1.2936041   -1.29360  0.00%     -   14s

Cutting planes:
  Lazy constraints: 1

Explored 0 nodes (2 simplex iterations) in 14.00 seconds
Thread count was 8 (of 8 available processors)

Solution count 1: -1.2936 
No other solutions better than -1.2936

Optimal solution found (tolerance 1.00e-04)
Best objective -1.293604075541e+00, best bound -1.293604075541e+00, gap 0.0000%

User-callback calls 53, time in user-callback 17.73 sec
